(declare-sort S1 0)
(declare-sort S2 0)
(declare-sort S3 0)
(declare-sort S4 0)
(declare-sort S5 0)
(declare-fun f1 () S1)
(declare-fun f3 (S4 S3) S1)
(declare-fun f4 (S5 S2) S4)
(declare-fun f9 () S5)
(declare-fun f11 (S3) S5)
(declare-fun f12 (S5 S2) S5)
(assert (forall ((?v0 S2) (?v1 S3)) (= (= 0 0) (or (distinct (f3 (f4 f9 ?v0) ?v1) f1)))))
(assert (forall ((?v0 S3) (?v1 S2) (?v2 S3)) (distinct (= (f3 (f4 (f11 ?v0) ?v1) ?v2) f1) (= 0 0))))
(assert (forall ((?v0 S5) (?v1 S2) (?v2 S2)) (= (f4 (f12 ?v0 ?v1) ?v2) (f4 ?v0 ?v1))))
(check-sat)